WARNING: for repeatability, setting FPU to use double precision
============================[ Problem Statistics ]=============================
|                                                                             |
|  Number of variables:           618                                         |
|  Number of clauses:               1                                         |
|  Parse time:                   0.00 s                                       |
|                                                                             |
============================[ Search Statistics ]==============================
| Conflicts |          ORIGINAL         |          LEARNT          | Progress |
|           |    Vars  Clauses Literals |    Limit  Clauses Lit/Cl |          |
===============================================================================
===============================================================================
restarts              : 1
conflicts             : 0              (0 /sec)
decisions             : 618            (0.00 % random) (458117 /sec)
propagations          : 618            (458117 /sec)
conflict literals     : 0              (-nan % deleted)
Memory used           : 11.00 MB
CPU time              : 0.001349 s

SATISFIABLE
